4 5 5 
78 83 256 278 
78 66 93 92 29 52 
78 87 27 75 65 24 
78 79 56 81 96 42 
78 88 62 28 11 70 
78 21 21 14 26 65 
83 73 93 74 92 90 
83 85 31 35 70 14 
83 45 80 34 73 5 
83 77 93 85 10 11 
83 8 83 77 14 51 
256 12 89 87 97 66 
256 3 30 65 42 60 
256 68 4 85 83 56 
256 71 1 8 89 31 
256 92 25 38 11 27 
278 73 9 65 40 26 
278 88 89 32 28 12 
278 19 62 28 99 10 
278 46 37 90 20 43 
278 17 22 2 41 70 
